sat
(
  (define-fun r1 () Int
    13)
  (define-fun r21 () Int
    12)
  (define-fun r12 () Int
    34)
  (define-fun r14 () Int
    38)
  (define-fun r16 () Int
    46)
  (define-fun r15 () Int
    41)
  (define-fun r37 () Int
    24)
  (define-fun r29 () Int
    3)
  (define-fun r47 () Int
    33)
  (define-fun r5 () Int
    8)
  (define-fun r9 () Int
    32)
  (define-fun r2 () Int
    27)
  (define-fun r0 () Int
    16)
  (define-fun r22 () Int
    26)
  (define-fun r35 () Int
    35)
  (define-fun r49 () Int
    20)
  (define-fun r3 () Int
    18)
  (define-fun r43 () Int
    2)
  (define-fun r27 () Int
    44)
  (define-fun r10 () Int
    43)
  (define-fun r20 () Int
    29)
  (define-fun r11 () Int
    25)
  (define-fun r30 () Int
    7)
  (define-fun r39 () Int
    5)
  (define-fun r46 () Int
    40)
  (define-fun r48 () Int
    49)
  (define-fun r17 () Int
    10)
  (define-fun r4 () Int
    31)
  (define-fun r32 () Int
    45)
  (define-fun r19 () Int
    9)
  (define-fun r7 () Int
    4)
  (define-fun r24 () Int
    42)
  (define-fun r28 () Int
    47)
  (define-fun r6 () Int
    37)
  (define-fun r8 () Int
    14)
  (define-fun r23 () Int
    19)
  (define-fun r45 () Int
    15)
  (define-fun r38 () Int
    30)
  (define-fun r41 () Int
    48)
  (define-fun r26 () Int
    28)
  (define-fun r25 () Int
    1)
  (define-fun r18 () Int
    39)
  (define-fun r13 () Int
    21)
  (define-fun r34 () Int
    17)
  (define-fun r33 () Int
    22)
  (define-fun r40 () Int
    0)
  (define-fun r42 () Int
    23)
  (define-fun r31 () Int
    36)
  (define-fun r44 () Int
    6)
  (define-fun r36 () Int
    11)
)
